\ Model MTZ_MODEL
\ LP format - for model browsing. Use MPS format to capture full model detail.
Minimize
  p[0,1] + p[0,2] + p[0,3] + p[0,4] + p[1,0] + p[1,2] + p[1,3] + p[1,4]
   + p[2,0] + p[2,1] + p[2,3] + p[2,4] + p[3,0] + p[3,1] + p[3,2] + p[3,4]
   + p[4,0] + p[4,1] + p[4,2] + p[4,3] + dc[0] + dc[1] + dc[2] + dc[3]
   + dc[4]
Subject To
 p2: p[0,1] - 13.64207331312299 z[0,1] >= 0
 p3: p[0,1] - 63.18496528862624 z[0,1] - dcc[0,1] >= -63.18496528862624
 R2: dcc[0,1] <= 63.18496528862624
 R3: x[0,1,0] - x[1,0,0] + dif[0,1,0] >= 0
 R4: - x[0,1,0] + x[1,0,0] + dif[0,1,0] >= 0
 R5: x[0,1,1] - x[1,0,1] + dif[0,1,1] >= 0
 R6: - x[0,1,1] + x[1,0,1] + dif[0,1,1] >= 0
 p2: p[0,2] - 11.4211326446486 z[0,2] >= 0
 p3: p[0,2] - 59.00616025044641 z[0,2] - dcc[0,2] >= -59.00616025044641
 R9: dcc[0,2] <= 59.00616025044641
 R10: x[0,1,0] - x[2,0,0] + dif[0,2,0] >= 0
 R11: - x[0,1,0] + x[2,0,0] + dif[0,2,0] >= 0
 R12: x[0,1,1] - x[2,0,1] + dif[0,2,1] >= 0
 R13: - x[0,1,1] + x[2,0,1] + dif[0,2,1] >= 0
 p2: p[0,3] + 6.161594012749996 z[0,3] >= 0
 p3: p[0,3] - 43.29080681921447 z[0,3] - dcc[0,3] >= -43.29080681921447
 R16: dcc[0,3] <= 43.29080681921447
 R17: x[0,1,0] - x[3,0,0] + dif[0,3,0] >= 0
 R18: - x[0,1,0] + x[3,0,0] + dif[0,3,0] >= 0
 R19: x[0,1,1] - x[3,0,1] + dif[0,3,1] >= 0
 R20: - x[0,1,1] + x[3,0,1] + dif[0,3,1] >= 0
 p2: p[0,4] - 2.390544747142618 z[0,4] >= 0
 p3: p[0,4] - 53.46998419452797 z[0,4] - dcc[0,4] >= -53.46998419452797
 R23: dcc[0,4] <= 53.46998419452797
 R24: x[0,1,0] - x[4,0,0] + dif[0,4,0] >= 0
 R25: - x[0,1,0] + x[4,0,0] + dif[0,4,0] >= 0
 R26: x[0,1,1] - x[4,0,1] + dif[0,4,1] >= 0
 R27: - x[0,1,1] + x[4,0,1] + dif[0,4,1] >= 0
 p2: p[1,0] - 13.64207331312299 z[1,0] >= 0
 p3: p[1,0] - 63.18496528862623 z[1,0] - dcc[1,0] >= -63.18496528862623
 R30: dcc[1,0] <= 63.18496528862623
 R31: - x[0,0,0] + x[1,1,0] + dif[1,0,0] >= 0
 R32: x[0,0,0] - x[1,1,0] + dif[1,0,0] >= 0
 R33: - x[0,0,1] + x[1,1,1] + dif[1,0,1] >= 0
 R34: x[0,0,1] - x[1,1,1] + dif[1,0,1] >= 0
 p2: p[1,2] - 13.7301513129716 z[1,2] >= 0
 p3: p[1,2] - 56.22833400791224 z[1,2] - dcc[1,2] >= -56.22833400791224
 R37: dcc[1,2] <= 56.22833400791224
 R38: x[1,1,0] - x[2,0,0] + dif[1,2,0] >= 0
 R39: - x[1,1,0] + x[2,0,0] + dif[1,2,0] >= 0
 R40: x[1,1,1] - x[2,0,1] + dif[1,2,1] >= 0
 R41: - x[1,1,1] + x[2,0,1] + dif[1,2,1] >= 0
 p2: p[1,3] - 31.05267856167576 z[1,3] >= 0
 p3: p[1,3] - 75.41823448278305 z[1,3] - dcc[1,3] >= -75.41823448278305
 R44: dcc[1,3] <= 75.41823448278305
 R45: x[1,1,0] - x[3,0,0] + dif[1,3,0] >= 0
 R46: - x[1,1,0] + x[3,0,0] + dif[1,3,0] >= 0
 R47: x[1,1,1] - x[3,0,1] + dif[1,3,1] >= 0
 R48: - x[1,1,1] + x[3,0,1] + dif[1,3,1] >= 0
 p2: p[1,4] - 26.23434789846746 z[1,4] >= 0
 p3: p[1,4] - 72.22694243499564 z[1,4] - dcc[1,4] >= -72.22694243499564
 R51: dcc[1,4] <= 72.22694243499564
 R52: x[1,1,0] - x[4,0,0] + dif[1,4,0] >= 0
 R53: - x[1,1,0] + x[4,0,0] + dif[1,4,0] >= 0
 R54: x[1,1,1] - x[4,0,1] + dif[1,4,1] >= 0
 R55: - x[1,1,1] + x[4,0,1] + dif[1,4,1] >= 0
 p2: p[2,0] - 11.4211326446486 z[2,0] >= 0
 p3: p[2,0] - 59.00616025044641 z[2,0] - dcc[2,0] >= -59.00616025044641
 R58: dcc[2,0] <= 59.00616025044641
 R59: - x[0,0,0] + x[2,1,0] + dif[2,0,0] >= 0
 R60: x[0,0,0] - x[2,1,0] + dif[2,0,0] >= 0
 R61: - x[0,0,1] + x[2,1,1] + dif[2,0,1] >= 0
 R62: x[0,0,1] - x[2,1,1] + dif[2,0,1] >= 0
 p2: p[2,1] - 13.7301513129716 z[2,1] >= 0
 p3: p[2,1] - 56.22833400791224 z[2,1] - dcc[2,1] >= -56.22833400791224
 R65: dcc[2,1] <= 56.22833400791224
 R66: - x[1,0,0] + x[2,1,0] + dif[2,1,0] >= 0
 R67: x[1,0,0] - x[2,1,0] + dif[2,1,0] >= 0
 R68: - x[1,0,1] + x[2,1,1] + dif[2,1,1] >= 0
 R69: x[1,0,1] - x[2,1,1] + dif[2,1,1] >= 0
 p2: p[2,3] - 32.31568520450441 z[2,3] >= 0
 p3: p[2,3] - 74.72337675590627 z[2,3] - dcc[2,3] >= -74.72337675590627
 R72: dcc[2,3] <= 74.72337675590627
 R73: x[2,1,0] - x[3,0,0] + dif[2,3,0] >= 0
 R74: - x[2,1,0] + x[3,0,0] + dif[2,3,0] >= 0
 R75: x[2,1,1] - x[3,0,1] + dif[2,3,1] >= 0
 R76: - x[2,1,1] + x[3,0,1] + dif[2,3,1] >= 0
 p2: p[2,4] + 0.3561980597287757 z[2,4] >= 0
 p3: p[2,4] - 43.67853210709396 z[2,4] - dcc[2,4] >= -43.67853210709396
 R79: dcc[2,4] <= 43.67853210709396
 R80: x[2,1,0] - x[4,0,0] + dif[2,4,0] >= 0
 R81: - x[2,1,0] + x[4,0,0] + dif[2,4,0] >= 0
 R82: x[2,1,1] - x[4,0,1] + dif[2,4,1] >= 0
 R83: - x[2,1,1] + x[4,0,1] + dif[2,4,1] >= 0
 p2: p[3,0] + 6.161594012749996 z[3,0] >= 0
 p3: p[3,0] - 43.29080681921448 z[3,0] - dcc[3,0] >= -43.29080681921448
 R86: dcc[3,0] <= 43.29080681921448
 R87: - x[0,0,0] + x[3,1,0] + dif[3,0,0] >= 0
 R88: x[0,0,0] - x[3,1,0] + dif[3,0,0] >= 0
 R89: - x[0,0,1] + x[3,1,1] + dif[3,0,1] >= 0
 R90: x[0,0,1] - x[3,1,1] + dif[3,0,1] >= 0
 p2: p[3,1] - 31.05267856167576 z[3,1] >= 0
 p3: p[3,1] - 75.41823448278305 z[3,1] - dcc[3,1] >= -75.41823448278305
 R93: dcc[3,1] <= 75.41823448278305
 R94: - x[1,0,0] + x[3,1,0] + dif[3,1,0] >= 0
 R95: x[1,0,0] - x[3,1,0] + dif[3,1,0] >= 0
 R96: - x[1,0,1] + x[3,1,1] + dif[3,1,1] >= 0
 R97: x[1,0,1] - x[3,1,1] + dif[3,1,1] >= 0
 p2: p[3,2] - 32.31568520450441 z[3,2] >= 0
 p3: p[3,2] - 74.72337675590627 z[3,2] - dcc[3,2] >= -74.72337675590627
 R100: dcc[3,2] <= 74.72337675590627
 R101: - x[2,0,0] + x[3,1,0] + dif[3,2,0] >= 0
 R102: x[2,0,0] - x[3,1,0] + dif[3,2,0] >= 0
 R103: - x[2,0,1] + x[3,1,1] + dif[3,2,1] >= 0
 R104: x[2,0,1] - x[3,1,1] + dif[3,2,1] >= 0
 p2: p[3,4] - 19.4076956929971 z[3,4] >= 0
 p3: p[3,4] - 65.30979908598651 z[3,4] - dcc[3,4] >= -65.30979908598651
 R107: dcc[3,4] <= 65.30979908598651
 R108: x[3,1,0] - x[4,0,0] + dif[3,4,0] >= 0
 R109: - x[3,1,0] + x[4,0,0] + dif[3,4,0] >= 0
 R110: x[3,1,1] - x[4,0,1] + dif[3,4,1] >= 0
 R111: - x[3,1,1] + x[4,0,1] + dif[3,4,1] >= 0
 p2: p[4,0] - 2.390544747142616 z[4,0] >= 0
 p3: p[4,0] - 53.46998419452797 z[4,0] - dcc[4,0] >= -53.46998419452797
 R114: dcc[4,0] <= 53.46998419452797
 R115: - x[0,0,0] + x[4,1,0] + dif[4,0,0] >= 0
 R116: x[0,0,0] - x[4,1,0] + dif[4,0,0] >= 0
 R117: - x[0,0,1] + x[4,1,1] + dif[4,0,1] >= 0
 R118: x[0,0,1] - x[4,1,1] + dif[4,0,1] >= 0
 p2: p[4,1] - 26.23434789846746 z[4,1] >= 0
 p3: p[4,1] - 72.22694243499564 z[4,1] - dcc[4,1] >= -72.22694243499564
 R121: dcc[4,1] <= 72.22694243499564
 R122: - x[1,0,0] + x[4,1,0] + dif[4,1,0] >= 0
 R123: x[1,0,0] - x[4,1,0] + dif[4,1,0] >= 0
 R124: - x[1,0,1] + x[4,1,1] + dif[4,1,1] >= 0
 R125: x[1,0,1] - x[4,1,1] + dif[4,1,1] >= 0
 p2: p[4,2] + 0.3561980597287757 z[4,2] >= 0
 p3: p[4,2] - 43.67853210709396 z[4,2] - dcc[4,2] >= -43.67853210709396
 R128: dcc[4,2] <= 43.67853210709396
 R129: - x[2,0,0] + x[4,1,0] + dif[4,2,0] >= 0
 R130: x[2,0,0] - x[4,1,0] + dif[4,2,0] >= 0
 R131: - x[2,0,1] + x[4,1,1] + dif[4,2,1] >= 0
 R132: x[2,0,1] - x[4,1,1] + dif[4,2,1] >= 0
 p2: p[4,3] - 19.4076956929971 z[4,3] >= 0
 p3: p[4,3] - 65.3097990859865 z[4,3] - dcc[4,3] >= -65.3097990859865
 R135: dcc[4,3] <= 65.3097990859865
 R136: - x[3,0,0] + x[4,1,0] + dif[4,3,0] >= 0
 R137: x[3,0,0] - x[4,1,0] + dif[4,3,0] >= 0
 R138: - x[3,0,1] + x[4,1,1] + dif[4,3,1] >= 0
 R139: x[3,0,1] - x[4,1,1] + dif[4,3,1] >= 0
 R140: z[0,1] + z[0,2] + z[0,3] + z[0,4] = 1
 R141: z[1,0] + z[1,2] + z[1,3] + z[1,4] = 1
 R142: z[2,0] + z[2,1] + z[2,3] + z[2,4] = 1
 R143: z[3,0] + z[3,1] + z[3,2] + z[3,4] = 1
 R144: z[4,0] + z[4,1] + z[4,2] + z[4,3] = 1
 R145: z[1,0] + z[2,0] + z[3,0] + z[4,0] = 1
 R146: z[0,1] + z[2,1] + z[3,1] + z[4,1] = 1
 R147: z[0,2] + z[1,2] + z[3,2] + z[4,2] = 1
 R148: z[0,3] + z[1,3] + z[2,3] + z[4,3] = 1
 R149: z[0,4] + z[1,4] + z[2,4] + z[3,4] = 1
 rest7: z[0,1] + z[1,0] <= 1
 rest7: z[0,2] + z[2,0] <= 1
 rest7: z[0,3] + z[3,0] <= 1
 rest7: z[0,4] + z[4,0] <= 1
 rest7: z[0,1] + z[1,0] <= 1
 rest7: z[1,2] + z[2,1] <= 1
 rest7: z[1,3] + z[3,1] <= 1
 rest7: z[1,4] + z[4,1] <= 1
 rest7: z[0,2] + z[2,0] <= 1
 rest7: z[1,2] + z[2,1] <= 1
 rest7: z[2,3] + z[3,2] <= 1
 rest7: z[2,4] + z[4,2] <= 1
 rest7: z[0,3] + z[3,0] <= 1
 rest7: z[1,3] + z[3,1] <= 1
 rest7: z[2,3] + z[3,2] <= 1
 rest7: z[3,4] + z[4,3] <= 1
 rest7: z[0,4] + z[4,0] <= 1
 rest7: z[1,4] + z[4,1] <= 1
 rest7: z[2,4] + z[4,2] <= 1
 rest7: z[3,4] + z[4,3] <= 1
 R170: 5 z[1,2] + sc[1] - sc[2] <= 4
 R171: 5 z[1,3] + sc[1] - sc[3] <= 4
 R172: 5 z[1,4] + sc[1] - sc[4] <= 4
 R173: 5 z[2,1] - sc[1] + sc[2] <= 4
 R174: 5 z[2,3] + sc[2] - sc[3] <= 4
 R175: 5 z[2,4] + sc[2] - sc[4] <= 4
 R176: 5 z[3,1] - sc[1] + sc[3] <= 4
 R177: 5 z[3,2] - sc[2] + sc[3] <= 4
 R178: 5 z[3,4] + sc[3] - sc[4] <= 4
 R179: 5 z[4,1] - sc[1] + sc[4] <= 4
 R180: 5 z[4,2] - sc[2] + sc[4] <= 4
 R181: 5 z[4,3] - sc[3] + sc[4] <= 4
 rest10: sc[0] = 0
 rest11: sc[1] >= 1
 rest11: sc[2] >= 1
 rest11: sc[3] >= 1
 rest11: sc[4] >= 1
 R187: dc[0] <= 27.31486844318021
 R188: - x[0,0,0] + x[0,1,0] + difc[0,0] >= 0
 R189: x[0,0,0] - x[0,1,0] + difc[0,0] >= 0
 R190: - x[0,0,1] + x[0,1,1] + difc[0,1] >= 0
 R191: x[0,0,1] - x[0,1,1] + difc[0,1] >= 0
 R192: dc[1] <= 22.22802353232303
 R193: - x[1,0,0] + x[1,1,0] + difc[1,0] >= 0
 R194: x[1,0,0] - x[1,1,0] + difc[1,0] >= 0
 R195: - x[1,0,1] + x[1,1,1] + difc[1,1] >= 0
 R196: x[1,0,1] - x[1,1,1] + difc[1,1] >= 0
 R197: dc[2] <= 20.2701591626176
 R198: - x[2,0,0] + x[2,1,0] + difc[2,0] >= 0
 R199: x[2,0,0] - x[2,1,0] + difc[2,0] >= 0
 R200: - x[2,0,1] + x[2,1,1] + difc[2,1] >= 0
 R201: x[2,0,1] - x[2,1,1] + difc[2,1] >= 0
 R202: dc[3] <= 22.13753238878426
 R203: - x[3,0,0] + x[3,1,0] + difc[3,0] >= 0
 R204: x[3,0,0] - x[3,1,0] + difc[3,0] >= 0
 R205: - x[3,0,1] + x[3,1,1] + difc[3,1] >= 0
 R206: x[3,0,1] - x[3,1,1] + difc[3,1] >= 0
 R207: dc[4] <= 23.76457100420514
 R208: - x[4,0,0] + x[4,1,0] + difc[4,0] >= 0
 R209: x[4,0,0] - x[4,1,0] + difc[4,0] >= 0
 R210: - x[4,0,1] + x[4,1,1] + difc[4,1] >= 0
 R211: x[4,0,1] - x[4,1,1] + difc[4,1] >= 0
 qc0: [ - dcc[0,1] ^2 + dif[0,1,0] ^2 + dif[0,1,1] ^2 ] <= 0
 qc1: [ - dcc[0,2] ^2 + dif[0,2,0] ^2 + dif[0,2,1] ^2 ] <= 0
 qc2: [ - dcc[0,3] ^2 + dif[0,3,0] ^2 + dif[0,3,1] ^2 ] <= 0
 qc3: [ - dcc[0,4] ^2 + dif[0,4,0] ^2 + dif[0,4,1] ^2 ] <= 0
 qc4: [ - dcc[1,0] ^2 + dif[1,0,0] ^2 + dif[1,0,1] ^2 ] <= 0
 qc5: [ - dcc[1,2] ^2 + dif[1,2,0] ^2 + dif[1,2,1] ^2 ] <= 0
 qc6: [ - dcc[1,3] ^2 + dif[1,3,0] ^2 + dif[1,3,1] ^2 ] <= 0
 qc7: [ - dcc[1,4] ^2 + dif[1,4,0] ^2 + dif[1,4,1] ^2 ] <= 0
 qc8: [ - dcc[2,0] ^2 + dif[2,0,0] ^2 + dif[2,0,1] ^2 ] <= 0
 qc9: [ - dcc[2,1] ^2 + dif[2,1,0] ^2 + dif[2,1,1] ^2 ] <= 0
 qc10: [ - dcc[2,3] ^2 + dif[2,3,0] ^2 + dif[2,3,1] ^2 ] <= 0
 qc11: [ - dcc[2,4] ^2 + dif[2,4,0] ^2 + dif[2,4,1] ^2 ] <= 0
 qc12: [ - dcc[3,0] ^2 + dif[3,0,0] ^2 + dif[3,0,1] ^2 ] <= 0
 qc13: [ - dcc[3,1] ^2 + dif[3,1,0] ^2 + dif[3,1,1] ^2 ] <= 0
 qc14: [ - dcc[3,2] ^2 + dif[3,2,0] ^2 + dif[3,2,1] ^2 ] <= 0
 qc15: [ - dcc[3,4] ^2 + dif[3,4,0] ^2 + dif[3,4,1] ^2 ] <= 0
 qc16: [ - dcc[4,0] ^2 + dif[4,0,0] ^2 + dif[4,0,1] ^2 ] <= 0
 qc17: [ - dcc[4,1] ^2 + dif[4,1,0] ^2 + dif[4,1,1] ^2 ] <= 0
 qc18: [ - dcc[4,2] ^2 + dif[4,2,0] ^2 + dif[4,2,1] ^2 ] <= 0
 qc19: [ - dcc[4,3] ^2 + dif[4,3,0] ^2 + dif[4,3,1] ^2 ] <= 0
 inC1: - 122.8851097662637 x[0,0,0] - 121.192650750185 x[0,0,1] + [
   x[0,0,0] ^2 + x[0,0,1] ^2 ] <= -7260.576690013686
 inC1: - 122.8851097662637 x[0,1,0] - 121.192650750185 x[0,1,1] + [
   x[0,1,0] ^2 + x[0,1,1] ^2 ] <= -7260.576690013686
 qc22: [ - dc[0] ^2 + difc[0,0] ^2 + difc[0,1] ^2 ] <= 0
 inC1: - 48.23616245589675 x[1,0,0] - 139.3565855047675 x[1,0,1] + [
   x[1,0,0] ^2 + x[1,0,1] ^2 ] <= -5313.225065466432
 inC1: - 48.23616245589675 x[1,1,0] - 139.3565855047675 x[1,1,1] + [
   x[1,1,0] ^2 + x[1,1,1] ^2 ] <= -5313.225065466432
 qc25: [ - dc[1] ^2 + difc[1,0] ^2 + difc[1,1] ^2 ] <= 0
 inC1: - 71.2549059145412 x[2,0,0] - 73.29353139751754 x[2,0,1] + [
   x[2,0,0] ^2 + x[2,0,1] ^2 ] <= -2509.58100228279
 inC1: - 71.2549059145412 x[2,1,0] - 73.29353139751754 x[2,1,1] + [
   x[2,1,0] ^2 + x[2,1,1] ^2 ] <= -2509.58100228279
 qc28: [ - dc[2] ^2 + difc[2,0] ^2 + difc[2,1] ^2 ] <= 0
 inC1: - 154.7026290651642 x[3,0,0] - 140.3296282882347 x[3,0,1] + [
   x[3,0,0] ^2 + x[3,0,1] ^2 ] <= -10783.80941873086
 inC1: - 154.7026290651642 x[3,1,0] - 140.3296282882347 x[3,1,1] + [
   x[3,1,0] ^2 + x[3,1,1] ^2 ] <= -10783.80941873086
 qc31: [ - dc[3] ^2 + difc[3,0] ^2 + difc[3,1] ^2 ] <= 0
 inC1: - 113.9671442148817 x[4,0,0] - 66.04857959047118 x[4,0,1] + [
   x[4,0,0] ^2 + x[4,0,1] ^2 ] <= -4196.542497850134
 inC1: - 113.9671442148817 x[4,1,0] - 66.04857959047118 x[4,1,1] + [
   x[4,1,0] ^2 + x[4,1,1] ^2 ] <= -4196.542497850134
 qc34: [ - dc[4] ^2 + difc[4,0] ^2 + difc[4,1] ^2 ] <= 0
Bounds
 sc[0] <= 4
 sc[1] <= 4
 sc[2] <= 4
 sc[3] <= 4
 sc[4] <= 4
Binaries
 z[0,1] z[0,2] z[0,3] z[0,4] z[1,0] z[1,2] z[1,3] z[1,4] z[2,0] z[2,1]
 z[2,3] z[2,4] z[3,0] z[3,1] z[3,2] z[3,4] z[4,0] z[4,1] z[4,2] z[4,3]
End
